 ! --------------------------------------------------- CP Optimizer 22.1.1.0 --
 ! Satisfiability problem - 39200 variables, 432140 constraints
 ! Presolve      : 24000 extractables eliminated
 ! TimeLimit            = 3600
 ! Workers              = 1
 ! Initial process time : 3.91s (3.89s extraction + 0.02s propagation)
 !  . Log search space  : 402769.4 (before), 402769.4 (after)
 !  . Memory usage      : 291.9 MB (before), 291.9 MB (after)
 ! Using sequential search.
 ! ----------------------------------------------------------------------------
 !               Branches  Non-fixed            Branch decision
                     1117      38539        F          presenceOf(copy_trips:27_7)
                     2065      38590        F          presenceOf(copy_trips:19_0)
                     3000      18425                   presenceOf(copy_trips:38_255)
                     4000      13235        F         !presenceOf(copy_trips:3_0)
                     5000      13093        F          presenceOf(copy_bus_parking:22_219)
                     6000      13093                   presenceOf(copy_lane_parking:1_7)
                     7000      28507                   presenceOf(copy_lane_parking:0_24)
                     8000      13096        F          presenceOf(copy_trips:30_219)
                     9000      13232                   presenceOf(copy_lane_parking:3_290)
                    10000      13232        F          presenceOf(copy_bus_parking:22_219)
                    11000      13232        F          presenceOf(copy_bus_parking:23_55)
                    12000      18326                   presenceOf(copy_lane_parking:4_202)
                    13000      18126                   presenceOf(copy_lane_parking:4_251)
                    14000      28631                   presenceOf(copy_lane_parking:5_83)
                    15000      24905                  !presenceOf(copy_bus_parking:17_0)
                    16000      35369                   presenceOf(copy_lane_parking:6_157)
                    17000      26495                   presenceOf(copy_lane_parking:4_230)
                    18000      20463        F          presenceOf(copy_trips:8_18)
                    19000      20463        F          presenceOf(copy_trips:11_18)
                    20000      20463        F          presenceOf(copy_trips:8_18)
 ! Time = 31.35s, Average fail depth = 377, Memory usage = 970.8 MB
 !               Branches  Non-fixed            Branch decision
                    21000      20463                  !presenceOf(copy_trips:17_3)
                    22000      26759        F          presenceOf(copy_trips:7_48)
                    23000      22778                   presenceOf(copy_lane_parking:0_293)
                    24000      24902                   presenceOf(copy_trips:29_220)
                    25000      19293        F          presenceOf(copy_trips:16_42)
                    26000      18504                   presenceOf(copy_lane_parking:5_76)
                    27000      19558                  !presenceOf(copy_trips:31_84)
                    28000      19555                   presenceOf(copy_lane_parking:3_103)
                    29000      13099                  !presenceOf(copy_bus_parking:37_219)
                    30000      13099        F         !presenceOf(copy_trips:5_0)
                    31000      33648                  !presenceOf(copy_trips:35_6)
                    32000      33648        F          presenceOf(copy_trips:19_0)
                    33000      29829        F         !presenceOf(copy_bus_parking:39_37)
                    34000      29829                   presenceOf(copy_lane_parking:7_259)
                    35000      18253        F          presenceOf(copy_bus_parking:10_47)
                    36000      18081        F          presenceOf(copy_trips:30_219)
                    37000      24902                   presenceOf(copy_trips:18_219)
                    38000      24899                  !presenceOf(copy_trips:16_219)
                    39000      24902        F          presenceOf(copy_trips:25_9)
                    40000      28567        F          presenceOf(copy_bus_parking:15_25)
 ! Time = 54.72s, Average fail depth = 376, Memory usage = 971.3 MB
 !               Branches  Non-fixed            Branch decision
                    41000      25663                   presenceOf(copy_trips:25_202)
                    42000      24905        F          presenceOf(copy_bus_parking:33_48)
                    43000      19067        F          presenceOf(copy_trips:8_18)
                    44000      13235                  !presenceOf(copy_trips:27_8)
                    45000      26341                  !presenceOf(copy_bus_parking:1_34)
                    46000      26502                  !presenceOf(copy_trips:30_48)
                    47000      26418        F          presenceOf(copy_trips:15_32)
                    48000      26418        F          presenceOf(copy_trips:17_32)
                    49000      18682                   presenceOf(copy_trips:30_238)
                    50000      13099        F          presenceOf(copy_trips:34_219)
                    51000      13099        F          presenceOf(copy_trips:8_219)
                    52000      13099        F          presenceOf(copy_trips:37_219)
                    53000      13099        F          presenceOf(copy_trips:34_219)
                    54000      13099        F          presenceOf(copy_trips:23_219)
                    55000      13099        F          presenceOf(copy_trips:2_219)
                    56000      13099        F          presenceOf(copy_trips:34_219)
                    57000      13099        F          presenceOf(copy_trips:23_219)
                    58000      13099        F          presenceOf(copy_trips:13_219)
                    59000      13099        F          presenceOf(copy_trips:7_219)
                    60000      13099        F          presenceOf(copy_trips:33_219)
 ! Time = 70.17s, Average fail depth = 404, Memory usage = 975.9 MB
 !               Branches  Non-fixed            Branch decision
                    61000      13099        F          presenceOf(copy_trips:30_219)
                    62000      13099                   presenceOf(copy_lane_parking:1_209)
                    63000      26361        F          presenceOf(copy_trips:6_25)
                    64000      26872                   presenceOf(copy_lane_parking:4_3)
                    65000      32078                   presenceOf(copy_lane_parking:4_194)
                    66000      24905                   presenceOf(copy_trips:36_137)
                    67000      13229                   presenceOf(copy_trips:23_288)
                    68000      13229                  !presenceOf(copy_bus_parking:12_219)
                    69000      13229        F          presenceOf(copy_trips:32_14)
                    70000      18820        F          presenceOf(copy_bus_parking:16_42)
                    71000      18451        F          presenceOf(copy_trips:16_298)
                    72000      24875                  !presenceOf(copy_trips:2_10)
                    73000      24905        F          presenceOf(copy_trips:29_219)
                    74000      24902        F          presenceOf(copy_trips:2_219)
                    75000      24905        F          presenceOf(copy_trips:36_219)
                    76000      24905                   presenceOf(copy_lane_parking:0_165)
                    77000      26512                   presenceOf(copy_bus_parking:22_115)
                    78000      20461                  !presenceOf(copy_bus_parking:0_219)
                    79000      24899                  !presenceOf(copy_trips:39_219)
                    80000      18218                  !presenceOf(copy_trips:2_23)
 ! Time = 92.96s, Average fail depth = 405, Memory usage = 975.9 MB
 !               Branches  Non-fixed            Branch decision
                    81000      17866                   presenceOf(copy_trips:37_224)
                    82000      24905                  !presenceOf(copy_bus_parking:2_219)
                    83000      24902                  !presenceOf(copy_bus_parking:2_219)
                    84000      24905                  !presenceOf(copy_bus_parking:15_219)
                    85000      20463                  !presenceOf(copy_trips:13_18)
                    86000      20463        F          presenceOf(copy_trips:1_298)
                    87000      24905                  !presenceOf(copy_trips:13_219)
                    88000      24902                  !presenceOf(copy_trips:4_219)
                    89000      24905                  !presenceOf(copy_trips:18_219)
                    90000      24905                  !presenceOf(copy_trips:19_219)
                    91000      24902                  !presenceOf(copy_trips:8_219)
                    92000      24905                  !presenceOf(copy_trips:21_219)
                    93000      24902        F         !presenceOf(copy_trips:12_219)
                    94000      24905        F          presenceOf(copy_trips:1_298)
                    95000      24902                  !presenceOf(copy_trips:25_219)
                    96000      24905                  !presenceOf(copy_trips:14_219)
                    97000      24905                  !presenceOf(copy_trips:27_219)
                    98000      24902        F          presenceOf(copy_trips:1_298)
                    99000      24905                   presenceOf(copy_bus_parking:16_13)
                     100k      13232        F          presenceOf(copy_bus_parking:25_219)
 ! Time = 107.67s, Average fail depth = 406, Memory usage = 975.9 MB
 !               Branches  Non-fixed            Branch decision
                     101k      13229                  !presenceOf(copy_trips:17_13)
                     102k      13096                  !presenceOf(copy_bus_parking:35_219)
                     103k      13093                  !presenceOf(copy_bus_parking:18_219)
                     104k      13096                  !presenceOf(copy_bus_parking:39_219)
                     105k      13096                  !presenceOf(copy_trips:31_90)
                     106k      21708                   presenceOf(copy_lane_parking:4_153)
                     107k      24908                   presenceOf(copy_lane_parking:1_127)
                     108k      23727        F          presenceOf(copy_bus_parking:12_1)
                     109k      23727        F          presenceOf(copy_bus_parking:36_1)
                     110k      23727        F          presenceOf(copy_bus_parking:38_1)
                     111k      22842        F          presenceOf(copy_bus_parking:21_7)
                     112k      22842                  !presenceOf(copy_bus_parking:21_7)
                     113k      22842                  !presenceOf(copy_bus_parking:12_7)
                     114k      22842        F         !presenceOf(copy_bus_parking:21_7)
                     115k      22842        F          presenceOf(copy_bus_parking:12_7)
                     116k      22842                  !presenceOf(copy_bus_parking:21_7)
                     117k      22842                  !presenceOf(copy_bus_parking:21_7)
                     118k      22842                  !presenceOf(copy_bus_parking:21_7)
                     119k      22842        F          presenceOf(copy_bus_parking:12_7)
                     120k      22842                   presenceOf(copy_lane_parking:5_268)
 ! Time = 128.18s, Average fail depth = 408, Memory usage = 976.5 MB
 !               Branches  Non-fixed            Branch decision
                     121k      20215                   presenceOf(copy_lane_parking:0_79)
                     122k      13232                   presenceOf(copy_trips:5_59)
                     123k      24905        F         !presenceOf(copy_trips:6_298)
                     124k      24905        F          presenceOf(copy_trips:38_0)
                     125k      20460                   presenceOf(copy_lane_parking:3_65)
                     126k      22772        F         !presenceOf(copy_bus_parking:3_1)
                     127k      22493                   presenceOf(copy_lane_parking:6_208)
                     128k      34248                   presenceOf(copy_lane_parking:5_258)
                     129k      27165        F          presenceOf(copy_bus_parking:37_57)
                     130k      19336        F          presenceOf(copy_bus_parking:1_80)
                     131k      19336                   presenceOf(copy_trips:3_230)
                     132k      24902        F          presenceOf(copy_trips:33_219)
                     133k      24899        F         !presenceOf(copy_trips:24_298)
                     134k      24902        F          presenceOf(copy_trips:13_219)
                     135k      20596        F          presenceOf(copy_bus_parking:5_18)
                     136k      20596                  !presenceOf(copy_trips:5_32)
                     137k      24902        F          presenceOf(copy_bus_parking:38_219)
                     138k      24905                  !presenceOf(copy_trips:24_2)
                     139k      27838                  !presenceOf(copy_trips:6_3)
                     140k      33993        F         !presenceOf(copy_trips:6_0)
 ! Time = 152.58s, Average fail depth = 402, Memory usage = 976.5 MB
 !               Branches  Non-fixed            Branch decision
                     141k      34046        F         !presenceOf(copy_trips:6_0)
                     142k      34046        F          presenceOf(copy_trips:6_0)
                     143k      34046        F          presenceOf(copy_trips:8_6)
                     144k      34046        F          presenceOf(copy_trips:0_6)
                     145k      33993        F         !presenceOf(copy_trips:6_0)
                     146k      33993        F          presenceOf(copy_trips:6_6)
                     147k      33993        F          presenceOf(copy_trips:19_6)
                     148k      33993                  !presenceOf(copy_trips:35_0)
                     149k      33993        F         !presenceOf(copy_trips:6_0)
                     150k      33993                   presenceOf(copy_trips:24_6)
                     151k      33993        F         !presenceOf(copy_trips:6_0)
                     152k      33993                   presenceOf(copy_lane_parking:1_148)
                     153k      34775        F          presenceOf(copy_trips:7_4)
                     154k      34775        F          presenceOf(copy_trips:7_4)
                     155k      34775        F          presenceOf(copy_trips:37_4)
                     156k      32856                  !presenceOf(copy_bus_parking:7_90)
                     157k      32850        F          presenceOf(copy_trips:22_14)
                     158k      32850                  !presenceOf(copy_bus_parking:14_90)
                     159k      32850                   presenceOf(copy_lane_parking:5_225)
                     160k      24899        F          presenceOf(copy_trips:34_298)
 ! Time = 170.76s, Average fail depth = 389, Memory usage = 976.5 MB
 !               Branches  Non-fixed            Branch decision
                     161k      24899        F          presenceOf(copy_trips:12_83)
                     162k      20153        F          presenceOf(copy_bus_parking:24_31)
                     163k      28484                   presenceOf(copy_trips:27_179)
                     164k      15976                   presenceOf(copy_bus_parking:10_220)
                     165k      15976        F          presenceOf(copy_bus_parking:13_220)
                     166k      15976                  !presenceOf(copy_trips:29_230)
                     167k      15976        F         !presenceOf(copy_trips:31_298)
                     168k      13205        F          presenceOf(copy_trips:5_219)
                     169k      13205        F          presenceOf(copy_bus_parking:25_20)
                     170k      23877        F          presenceOf(copy_bus_parking:6_1)
                     171k      23877                   presenceOf(copy_lane_parking:6_57)
                     172k      13226                   presenceOf(copy_lane_parking:2_249)
                     173k      27461                   presenceOf(copy_lane_parking:0_139)
                     174k      24905        F          presenceOf(copy_trips:14_219)
                     175k      24902        F         !presenceOf(copy_trips:24_298)
                     176k      24905        F          presenceOf(copy_trips:25_219)
                     177k      24905                   presenceOf(copy_trips:25_2)
                     178k      13229                  !presenceOf(copy_bus_parking:8_219)
                     179k      13232        F         !presenceOf(copy_bus_parking:24_2)
                     180k      22630                   presenceOf(copy_bus_parking:16_2)
 ! Time = 192.37s, Average fail depth = 390, Memory usage = 982.3 MB
 !               Branches  Non-fixed            Branch decision
                     181k      22781        F          presenceOf(copy_bus_parking:10_0)
                     182k      22781        F          presenceOf(copy_bus_parking:36_1)
                     183k      22781                  !presenceOf(copy_bus_parking:13_2)
                     184k      22781        F          presenceOf(copy_bus_parking:5_1)
                     185k      22781                   presenceOf(copy_bus_parking:19_2)
                     186k      22782        F          presenceOf(copy_bus_parking:5_1)
                     187k      22782        F          presenceOf(copy_bus_parking:27_1)
                     188k      22781        F          presenceOf(copy_bus_parking:10_1)
                     189k      22781        F          presenceOf(copy_bus_parking:10_0)
                     190k      22781        F          presenceOf(copy_bus_parking:12_0)
                     191k      22782        F          presenceOf(copy_bus_parking:5_1)
                     192k      22782                   presenceOf(copy_trips:3_258)
                     193k      24905                   presenceOf(copy_lane_parking:2_24)
                     194k      26538                  !presenceOf(copy_trips:23_48)
                     195k      26538        F          presenceOf(copy_trips:20_32)
                     196k      26538                  !presenceOf(copy_trips:5_48)
                     197k      26538                  !presenceOf(copy_trips:2_48)
                     198k      26523                  !presenceOf(copy_trips:12_31)
                     199k      26523        F         !presenceOf(copy_trips:14_48)
                     200k      26538                  !presenceOf(copy_trips:19_48)
 ! Time = 218.25s, Average fail depth = 391, Memory usage = 982.3 MB
 !               Branches  Non-fixed            Branch decision
                     201k      26538                  !presenceOf(copy_trips:2_48)
                     202k      26538                  !presenceOf(copy_trips:34_48)
                     203k      26538                  !presenceOf(copy_trips:22_48)
                     204k      26538                  !presenceOf(copy_trips:10_48)
                     205k      26535                  !presenceOf(copy_trips:2_48)
                     206k      26523                  !presenceOf(copy_trips:39_48)
                     207k      26520                  !presenceOf(copy_trips:31_48)
                     208k      27023                  !presenceOf(copy_trips:39_48)
                     209k      27019                  !presenceOf(copy_trips:6_31)
                     210k      27070                  !presenceOf(copy_trips:37_48)
                     211k      27019                  !presenceOf(copy_trips:9_48)
                     212k      27019                  !presenceOf(copy_trips:29_31)
                     213k      26628                  !presenceOf(copy_trips:31_48)
                     214k      26538                  !presenceOf(copy_trips:6_48)
                     215k      26535                  !presenceOf(copy_trips:29_48)
                     216k      26535                  !presenceOf(copy_trips:2_48)
                     217k      26535                  !presenceOf(copy_trips:4_48)
                     218k      26520                  !presenceOf(copy_trips:22_48)
                     219k      26520                  !presenceOf(copy_trips:16_48)
                     220k      26538        F         !presenceOf(copy_trips:14_48)
 ! Time = 253.29s, Average fail depth = 388, Memory usage = 982.3 MB
 !               Branches  Non-fixed            Branch decision
                     221k      27342                  !presenceOf(copy_trips:4_48)
                     222k      26541                  !presenceOf(copy_trips:39_48)
                     223k      26523                  !presenceOf(copy_trips:5_48)
                     224k      26523                  !presenceOf(copy_trips:10_48)
                     225k      26544                  !presenceOf(copy_trips:8_48)
                     226k      26541                  !presenceOf(copy_trips:3_48)
                     227k      26541                  !presenceOf(copy_trips:2_48)
                     228k      26541                  !presenceOf(copy_trips:2_48)
                     229k      26628                  !presenceOf(copy_trips:1_48)
                     230k      26541        F          presenceOf(copy_trips:2_32)
                     231k      26538                  !presenceOf(copy_trips:21_48)
                     232k      26538                  !presenceOf(copy_trips:37_48)
                     233k      26538                  !presenceOf(copy_trips:34_48)
                     234k      26526                  !presenceOf(copy_trips:37_48)
                     235k      26523                  !presenceOf(copy_trips:19_48)
                     236k      26538                  !presenceOf(copy_trips:5_48)
                     237k      26538                  !presenceOf(copy_trips:8_48)
                     238k      26538                  !presenceOf(copy_trips:5_48)
                     239k      26538                  !presenceOf(copy_trips:6_48)
                     240k      26526        F         !presenceOf(copy_trips:14_48)
 ! Time = 290.10s, Average fail depth = 386, Memory usage = 982.3 MB
 !               Branches  Non-fixed            Branch decision
                     241k      26523                  !presenceOf(copy_trips:3_48)
                     242k      26538                   presenceOf(copy_trips:27_32)
                     243k      26538                  !presenceOf(copy_trips:5_48)
                     244k      26538                  !presenceOf(copy_trips:29_48)
                     245k      26538                  !presenceOf(copy_bus_parking:33_25)
                     246k      24908                   presenceOf(copy_lane_parking:1_54)
                     247k      28800                   presenceOf(copy_lane_parking:2_136)
                     248k      24905                   presenceOf(copy_lane_parking:3_270)
                     249k      24902        F          presenceOf(copy_trips:1_24)
                     250k      24905                  !presenceOf(copy_bus_parking:20_219)
                     251k      18525                   presenceOf(copy_lane_parking:2_55)
                     252k      24908                  !presenceOf(copy_bus_parking:19_219)
                     253k      24908                   presenceOf(copy_lane_parking:6_235)
                     254k      13235                   presenceOf(copy_lane_parking:2_173)
                     255k      24905                   presenceOf(copy_trips:0_105)
                     256k      13105        F          presenceOf(copy_bus_parking:25_219)
                     257k      13105        F          presenceOf(copy_trips:5_48)
                     258k      27763        F          presenceOf(copy_trips:3_74)
                     259k      14394        F          presenceOf(copy_trips:31_188)
                     260k         34           3967  = startOf(charge:17_266)
 ! Time = 319.34s, Average fail depth = 386, Memory usage = 1.0 GB
 !               Branches  Non-fixed            Branch decision
 *                   260k  319.39s                   -
 ! ----------------------------------------------------------------------------
 ! Search completed, 1 solution found.
 ! ----------------------------------------------------------------------------
 ! Number of branches     : 260099
 ! Number of fails        : 104581
 ! Total memory usage     : 1.1 GB (1.1 GB CP Optimizer + 0.0 GB Concert)
 ! Time spent in solve    : 319.41s (315.52s engine + 3.89s extraction)
 ! Search speed (br. / s) : 824.4
 ! ----------------------------------------------------------------------------
